1182	1169	995	1025	934	966
1057	982	1057	1052	1032	1215
1203	1006	1023	1099	1237	1055
1165	961	1245	1125	949	1235
961	950	1054	1245	988	1036
1063	997	953	1097	1149	1174
1153	1167	1245	1055	1199	963
974	1245	1183	1186	980	1041
1094	1195	1113	1100	1188	1233
1028	972	922	937	935	1040
